language Essence 1.3
letting nnodes be 13
letting nrings be 7
letting capacity be 5
letting demand be {{1, 9},
{1, 11},
{2, 3},
{2, 5},
{2, 9},
{2, 10},
{2, 13},
{3, 10},
{4, 5},
{4, 8},
{4, 11},
{4, 12},
{5, 6},
{5, 7},
{7, 9},
{7, 10},
{7, 12},
{8, 10},
{8, 12},
{8, 13},
{9, 12},
{10, 13},
{11, 13},
{12, 13}}
